32      4       
10      10      10      10      
0       0       0       0       0       6       2       3       4       8       12      14      
1       1       1       0       1       3       6       9       11      
2       0       7       1       4       3       5       9       13      
2       5       2       0       4       3       7       10      21      
2       4       6       6       0       6       15      17      18      20      21      23      
6       6       0       3       4       4       13      15      16      18      
10      3       4       0       3       2       9       20      
3       2       0       4       4       6       15      17      18      21      23      25      
2       4       0       3       3       6       17      18      19      22      23      25      
3       1       6       5       0       4       15      17      18      19      
2       0       3       5       1       4       15      18      24      25      
4       6       3       0       5       5       18      21      22      24      25      
5       0       4       2       7       4       17      21      22      25      
7       5       0       3       5       3       17      22      23      
5       4       0       5       4       5       22      28      29      30      31      
8       2       7       0       3       4       21      27      30      31      
4       4       5       0       4       5       24      26      27      29      31      
6       0       2       6       5       4       26      27      29      30      
5       4       3       0       4       4       26      27      28      31      
3       9       0       7       3       3       25      28      30      
5       6       3       0       3       3       26      28      29      
5       0       3       3       4       2       26      27      
4       2       3       6       0       2       27      30      
5       0       5       3       2       1       28      
5       5       4       4       0       1       26      
6       3       0       3       2       1       32      
8       4       3       3       0       1       32      
10      0       5       2       7       1       32      
4       4       4       0       7       1       32      
5       0       4       6       6       1       32      
6       0       5       4       5       1       32      
0       0       0       0       0       0       
